c colouring generated by benchmark framework
p edge 841 1624
v 1 0
v 2 2
v 3 1
v 4 0
v 5 2
v 6 3
v 7 0
v 8 3
v 9 0
v 10 1
v 11 3
v 12 0
v 13 1
v 14 2
v 15 3
v 16 1
v 17 3
v 18 0
v 19 3
v 20 0
v 21 1
v 22 3
v 23 1
v 24 0
v 25 1
v 26 2
v 27 3
v 28 0
v 29 3
v 30 3
v 31 0
v 32 3
v 33 1
v 34 0
v 35 1
v 36 3
v 37 0
v 38 3
v 39 0
v 40 1
v 41 3
v 42 2
v 43 0
v 44 2
v 45 3
v 46 0
v 47 2
v 48 0
v 49 2
v 50 0
v 51 2
v 52 0
v 53 1
v 54 2
v 55 0
v 56 1
v 57 2
v 58 1
v 59 0
v 60 3
v 61 2
v 62 3
v 63 2
v 64 3
v 65 0
v 66 3
v 67 0
v 68 2
v 69 0
v 70 1
v 71 3
v 72 2
v 73 0
v 74 1
v 75 3
v 76 1
v 77 3
v 78 0
v 79 1
v 80 3
v 81 2
v 82 3
v 83 0
v 84 1
v 85 0
v 86 1
v 87 0
v 88 2
v 89 1
v 90 3
v 91 1
v 92 0
v 93 1
v 94 2
v 95 0
v 96 1
v 97 0
v 98 2
v 99 3
v 100 1
v 101 3
v 102 1
v 103 2
v 104 1
v 105 2
v 106 0
v 107 3
v 108 2
v 109 0
v 110 1
v 111 0
v 112 3
v 113 0
v 114 1
v 115 2
v 116 1
v 117 1
v 118 0
v 119 2
v 120 0
v 121 1
v 122 2
v 123 0
v 124 1
v 125 3
v 126 2
v 127 1
v 128 0
v 129 3
v 130 0
v 131 2
v 132 1
v 133 3
v 134 0
v 135 1
v 136 0
v 137 1
v 138 3
v 139 2
v 140 3
v 141 0
v 142 3
v 143 0
v 144 1
v 145 0
v 146 0
v 147 1
v 148 0
v 149 3
v 150 2
v 151 3
v 152 1
v 153 2
v 154 0
v 155 1
v 156 0
v 157 2
v 158 0
v 159 2
v 160 1
v 161 2
v 162 0
v 163 1
v 164 3
v 165 1
v 166 3
v 167 0
v 168 1
v 169 0
v 170 1
v 171 2
v 172 3
v 173 2
v 174 1
v 175 2
v 176 0
v 177 1
v 178 2
v 179 0
v 180 1
v 181 0
v 182 1
v 183 3
v 184 0
v 185 2
v 186 3
v 187 1
v 188 3
v 189 2
v 190 0
v 191 1
v 192 2
v 193 1
v 194 2
v 195 0
v 196 2
v 197 0
v 198 1
v 199 2
v 200 0
v 201 2
v 202 1
v 203 3
v 204 0
v 205 3
v 206 2
v 207 3
v 208 2
v 209 0
v 210 3
v 211 2
v 212 0
v 213 2
v 214 0
v 215 1
v 216 0
v 217 2
v 218 3
v 219 1
v 220 0
v 221 1
v 222 0
v 223 1
v 224 2
v 225 1
v 226 2
v 227 3
v 228 0
v 229 1
v 230 3
v 231 0
v 232 1
v 233 2
v 234 1
v 235 0
v 236 1
v 237 0
v 238 1
v 239 2
v 240 0
v 241 1
v 242 0
v 243 3
v 244 0
v 245 2
v 246 1
v 247 2
v 248 3
v 249 2
v 250 0
v 251 3
v 252 2
v 253 0
v 254 2
v 255 3
v 256 0
v 257 3
v 258 0
v 259 2
v 260 1
v 261 0
v 262 0
v 263 2
v 264 3
v 265 0
v 266 2
v 267 0
v 268 1
v 269 3
v 270 0
v 271 2
v 272 1
v 273 3
v 274 1
v 275 0
v 276 1
v 277 2
v 278 1
v 279 3
v 280 1
v 281 3
v 282 1
v 283 0
v 284 2
v 285 1
v 286 0
v 287 1
v 288 3
v 289 2
v 290 1
v 291 3
v 292 1
v 293 0
v 294 2
v 295 0
v 296 2
v 297 0
v 298 1
v 299 2
v 300 1
v 301 0
v 302 1
v 303 0
v 304 1
v 305 2
v 306 3
v 307 0
v 308 1
v 309 0
v 310 2
v 311 0
v 312 1
v 313 3
v 314 0
v 315 3
v 316 2
v 317 0
v 318 3
v 319 0
v 320 0
v 321 2
v 322 1
v 323 0
v 324 2
v 325 1
v 326 3
v 327 2
v 328 1
v 329 0
v 330 3
v 331 0
v 332 1
v 333 3
v 334 1
v 335 0
v 336 1
v 337 0
v 338 1
v 339 3
v 340 2
v 341 3
v 342 0
v 343 1
v 344 0
v 345 1
v 346 2
v 347 0
v 348 2
v 349 1
v 350 0
v 351 3
v 352 1
v 353 3
v 354 0
v 355 1
v 356 0
v 357 3
v 358 2
v 359 1
v 360 2
v 361 0
v 362 1
v 363 2
v 364 1
v 365 0
v 366 3
v 367 2
v 368 0
v 369 1
v 370 0
v 371 2
v 372 0
v 373 2
v 374 3
v 375 1
v 376 3
v 377 0
v 378 0
v 379 3
v 380 0
v 381 2
v 382 0
v 383 1
v 384 3
v 385 1
v 386 2
v 387 3
v 388 0
v 389 1
v 390 3
v 391 2
v 392 3
v 393 0
v 394 3
v 395 0
v 396 3
v 397 1
v 398 3
v 399 2
v 400 0
v 401 1
v 402 3
v 403 1
v 404 0
v 405 1
v 406 2
v 407 2
v 408 1
v 409 2
v 410 1
v 411 2
v 412 0
v 413 1
v 414 2
v 415 3
v 416 2
v 417 3
v 418 0
v 419 2
v 420 1
v 421 2
v 422 1
v 423 0
v 424 2
v 425 1
v 426 0
v 427 1
v 428 0
v 429 2
v 430 0
v 431 1
v 432 2
v 433 3
v 434 0
v 435 3
v 436 0
v 437 2
v 438 0
v 439 3
v 440 1
v 441 2
v 442 3
v 443 0
v 444 1
v 445 0
v 446 2
v 447 1
v 448 3
v 449 0
v 450 1
v 451 2
v 452 1
v 453 0
v 454 2
v 455 1
v 456 2
v 457 3
v 458 0
v 459 1
v 460 2
v 461 0
v 462 1
v 463 3
v 464 2
v 465 2
v 466 3
v 467 1
v 468 0
v 469 2
v 470 3
v 471 2
v 472 1
v 473 0
v 474 1
v 475 0
v 476 3
v 477 2
v 478 1
v 479 2
v 480 0
v 481 2
v 482 3
v 483 1
v 484 0
v 485 1
v 486 0
v 487 3
v 488 2
v 489 0
v 490 3
v 491 2
v 492 0
v 493 1
v 494 0
v 495 2
v 496 0
v 497 1
v 498 0
v 499 1
v 500 3
v 501 0
v 502 2
v 503 0
v 504 1
v 505 0
v 506 1
v 507 0
v 508 1
v 509 2
v 510 3
v 511 2
v 512 0
v 513 1
v 514 3
v 515 2
v 516 0
v 517 1
v 518 3
v 519 2
v 520 0
v 521 2
v 522 0
v 523 1
v 524 0
v 525 1
v 526 0
v 527 2
v 528 3
v 529 0
v 530 3
v 531 1
v 532 3
v 533 2
v 534 1
v 535 2
v 536 3
v 537 0
v 538 1
v 539 0
v 540 1
v 541 3
v 542 2
v 543 0
v 544 1
v 545 2
v 546 0
v 547 1
v 548 0
v 549 1
v 550 0
v 551 1
v 552 2
v 553 3
v 554 0
v 555 2
v 556 1
v 557 0
v 558 2
v 559 1
v 560 0
v 561 2
v 562 0
v 563 3
v 564 0
v 565 2
v 566 1
v 567 2
v 568 1
v 569 2
v 570 0
v 571 1
v 572 2
v 573 0
v 574 1
v 575 2
v 576 3
v 577 2
v 578 0
v 579 1
v 580 3
v 581 3
v 582 1
v 583 2
v 584 0
v 585 3
v 586 1
v 587 3
v 588 0
v 589 1
v 590 3
v 591 1
v 592 0
v 593 1
v 594 3
v 595 0
v 596 3
v 597 0
v 598 1
v 599 3
v 600 0
v 601 3
v 602 2
v 603 3
v 604 0
v 605 1
v 606 0
v 607 2
v 608 3
v 609 0
v 610 0
v 611 3
v 612 0
v 613 1
v 614 2
v 615 3
v 616 1
v 617 2
v 618 0
v 619 1
v 620 0
v 621 3
v 622 0
v 623 1
v 624 2
v 625 1
v 626 2
v 627 3
v 628 0
v 629 1
v 630 2
v 631 0
v 632 1
v 633 2
v 634 0
v 635 1
v 636 3
v 637 0
v 638 1
v 639 2
v 640 1
v 641 2
v 642 0
v 643 3
v 644 1
v 645 3
v 646 1
v 647 3
v 648 0
v 649 2
v 650 0
v 651 3
v 652 0
v 653 1
v 654 0
v 655 3
v 656 0
v 657 1
v 658 2
v 659 3
v 660 1
v 661 2
v 662 0
v 663 3
v 664 2
v 665 0
v 666 2
v 667 3
v 668 1
v 669 2
v 670 3
v 671 2
v 672 1
v 673 0
v 674 2
v 675 3
v 676 2
v 677 3
v 678 1
v 679 2
v 680 0
v 681 1
v 682 0
v 683 3
v 684 0
v 685 1
v 686 3
v 687 0
v 688 1
v 689 0
v 690 1
v 691 3
v 692 2
v 693 0
v 694 1
v 695 3
v 696 2
v 697 3
v 698 0
v 699 1
v 700 3
v 701 0
v 702 2
v 703 3
v 704 0
v 705 3
v 706 0
v 707 3
v 708 0
v 709 1
v 710 2
v 711 3
v 712 0
v 713 1
v 714 3
v 715 1
v 716 2
v 717 0
v 718 2
v 719 3
v 720 0
v 721 1
v 722 2
v 723 3
v 724 1
v 725 3
v 726 0
v 727 3
v 728 0
v 729 1
v 730 2
v 731 3
v 732 0
v 733 2
v 734 0
v 735 3
v 736 2
v 737 1
v 738 3
v 739 0
v 740 2
v 741 1
v 742 0
v 743 1
v 744 2
v 745 0
v 746 2
v 747 1
v 748 0
v 749 1
v 750 2
v 751 3
v 752 0
v 753 3
v 754 0
v 755 1
v 756 0
v 757 1
v 758 2
v 759 0
v 760 2
v 761 1
v 762 0
v 763 1
v 764 0
v 765 1
v 766 0
v 767 2
v 768 1
v 769 3
v 770 0
v 771 3
v 772 2
v 773 1
v 774 2
v 775 1
v 776 0
v 777 1
v 778 2
v 779 1
v 780 0
v 781 3
v 782 1
v 783 2
v 784 2
v 785 3
v 786 0
v 787 1
v 788 2
v 789 0
v 790 3
v 791 2
v 792 0
v 793 3
v 794 0
v 795 1
v 796 0
v 797 2
v 798 0
v 799 2
v 800 1
v 801 3
v 802 0
v 803 1
v 804 0
v 805 1
v 806 0
v 807 3
v 808 0
v 809 3
v 810 0
v 811 2
v 812 0
v 813 3
v 814 2
v 815 3
v 816 2
v 817 1
v 818 3
v 819 2
v 820 0
v 821 2
v 822 0
v 823 1
v 824 3
v 825 2
v 826 0
v 827 3
v 828 0
v 829 3
v 830 0
v 831 1
v 832 0
v 833 2
v 834 0
v 835 1
v 836 2
v 837 1
v 838 0
v 839 3
v 840 0
v 841 1
